4618400
172,149,128,121,82,146,18,23,138,9,55,225,14,44,211,97,205,35,127,219,150,217,80,53,100,175,39,1,26,34,144,61,131,222,141,99,188,12,96,91,67,147,208,94,112,27,179,135,117,163,178,62,37,207,157,50,136,2,106,218,210,47,48,151,229,32,72,3,43,7,13,223,84,73,51,154,176,201,122,152,16,75,192,81,215,133,102,88,103,33,54,170,92,158,85,8,194,98,113,42,79,25,180,104,132,186,4,20,140,161,116,83,190,148,202,125,139,95,29,129,76,101,6,220,227,206,119,213,181,134,156,166,89,185,182,124,167,69,165,197,38,153,17,155,191,46,174,143,57,228,78,130,40,169,107,196,187,77,209,226,115,221,59,109,203,93,41,105,195,65,212,168,52,164,28,22,5,30,58,45,120,31,24,56,66,230,123,19,11,111,114,193,200,198,10,110,177,159,162,87,183,68,214,64,145,224,90,171,142,21,86,216,118,71,49,126,60,74,63,173,70,36,108,137,15,184,189,199,160,204,172